n = 10
m = 10
c = 4

problem 1
---------
 0 1 1 0 1 0 0 0 0 0
 0 0 1 1 0 0 1 0 0 0
 0 1 0 0 0 0 1 0 0 1
 0 0 0 1 0 1 0 0 0 0
 0 0 0 0 0 0 1 0 1 0
 1 1 1 0 1 0 0 0 0 0
 0 0 0 0 1 1 0 1 1 1
 1 0 1 1 0 1 1 0 0 0
 1 0 0 0 1 1 0 0 0 1
 1 0 0 0 0 0 0 1 0 0

problem 2
---------
 1 0 0 0 0 0 0 0 0 0
 0 0 1 1 0 0 0 1 0 0
 0 1 1 0 1 1 0 0 0 0
 0 0 0 0 1 0 1 0 1 0
 1 1 0 0 0 0 1 1 0 0
 0 0 1 0 0 0 1 0 0 0
 0 0 0 1 0 0 0 0 0 0
 1 0 1 0 0 0 0 0 1 0
 0 1 0 0 0 0 0 0 1 1
 1 0 0 0 0 1 1 0 0 1

problem 3
---------
 0 1 0 0 0 1 0 0 0 0
 0 1 0 0 1 0 1 0 0 1
 0 0 1 0 0 0 1 1 1 1
 0 0 0 1 0 0 0 0 0 0
 0 1 0 0 0 0 1 0 1 0
 0 1 0 0 0 1 0 1 0 0
 1 0 0 0 0 0 0 0 1 0
 0 0 1 0 1 1 0 0 0 0
 1 0 0 0 1 0 0 0 0 1
 0 0 1 1 1 0 0 0 0 1

problem 4
---------
 0 0 0 0 0 0 0 0 1 1
 0 1 0 0 0 1 0 0 0 0
 0 1 0 1 0 1 0 1 1 1
 0 0 0 1 1 0 0 0 0 0
 1 0 0 0 0 1 0 0 1 0
 0 0 0 0 1 0 0 1 0 1
 1 0 0 0 0 0 1 0 0 1
 0 1 1 0 0 0 1 0 0 0
 0 0 1 0 1 1 0 1 0 0
 0 0 1 0 1 0 1 0 0 0

problem 5
---------
 0 1 1 0 0 1 1 0 0 1
 0 0 1 0 0 1 1 1 0 0
 0 0 1 1 1 0 0 0 0 0
 0 0 0 1 0 0 0 0 1 0
 0 1 0 0 1 0 0 1 0 0
 1 1 0 0 0 0 0 0 1 0
 0 1 0 0 0 0 1 1 0 0
 0 0 1 1 1 1 0 0 1 0
 0 0 0 0 0 0 0 0 0 1
 1 0 0 0 1 1 0 1 0 0

problem 6
---------
 0 1 0 0 1 0 0 1 1 1
 0 0 1 0 1 1 0 0 0 1
 0 1 0 0 1 1 0 0 0 0
 1 0 0 0 0 0 0 0 1 0
 0 0 1 0 0 0 1 0 1 0
 1 0 0 0 0 0 1 1 0 0
 0 0 0 1 0 1 1 1 0 1
 0 1 0 1 1 0 0 0 0 0
 0 0 0 0 0 0 0 0 0 1
 0 1 0 0 0 1 0 1 1 0

problem 7
---------
 0 1 0 0 0 1 1 0 0 1
 0 0 0 0 1 1 0 1 1 0
 0 1 1 0 0 0 0 1 0 0
 1 0 0 1 1 0 0 0 1 0
 0 0 1 0 0 0 0 0 0 0
 1 0 1 1 0 0 0 0 0 1
 0 0 1 0 1 0 1 1 0 0
 0 0 0 0 0 0 1 0 1 1
 0 0 0 1 0 1 0 0 0 1
 1 1 0 0 0 0 0 0 0 0

problem 8
---------
 1 0 0 0 1 0 0 0 1 0
 0 0 0 0 1 1 1 1 0 0
 1 1 1 1 0 1 0 0 0 1
 0 0 0 1 0 0 1 0 0 0
 0 1 0 0 0 1 0 0 1 0
 1 0 0 1 0 0 0 1 0 1
 0 1 0 0 1 0 0 0 0 1
 0 1 0 0 0 0 0 1 0 0
 0 0 1 0 0 1 0 0 0 0
 0 0 1 1 0 0 0 1 0 1

problem 9
---------
 1 0 0 0 0 0 0 1 0 0
 1 1 1 0 0 0 1 0 0 0
 0 0 0 1 1 0 1 0 1 0
 1 1 1 0 0 1 0 0 1 1
 0 0 0 0 0 1 0 0 0 0
 0 1 0 0 0 0 1 0 1 1
 0 0 1 1 0 0 0 0 0 0
 0 1 0 0 1 0 0 1 0 0
 0 0 0 0 0 0 0 0 1 1
 0 0 1 1 0 1 1 0 0 1

problem 10
---------
 0 1 0 0 1 0 0 0 0 1
 1 0 0 1 0 0 0 0 1 0
 1 1 0 1 1 0 0 0 0 0
 0 0 0 0 0 0 1 0 1 0
 0 0 1 1 0 1 0 1 1 0
 1 0 0 0 0 0 0 1 0 1
 0 0 1 0 0 1 1 1 0 0
 0 1 1 0 1 0 1 0 0 0
 1 0 0 0 1 1 0 0 0 0
 0 1 0 0 0 0 0 1 0 1
